1567855
19,49,23,60,5,40,32,56,29,25,30,41,6,64,67,7,38,21,3,61,24,42,12,1,54,13,47,20,4,48,2,65,45,27,17,9,58,63,16,59,36,28,50,8,15,68,35,51,39,62,37,53,44,10,18,57,33,52,14,31,22,43,46,55,34,11,66,26